\ LP format - for model browsing. Use MPS format to capture full model detail.
Maximize
  3 a + 10 p
Subject To
 R0: 4 a + 2 p <= 200
 R1: - 0.99 a + 6.7 p <= 0
 R2: e >= 4
Bounds
 e >= 4
Generals
 a p e
End
